robust/generate/spp_dkp_Lefebvre_et_al_2026/src/shortest_path_9_3.kp
45
263

[4.48 2.49 1.28 0.35 2.02 2.14 0.22 0.74 0.53 2.84 3.88 2.95 4.49 2.13 2.8 1.28 4.43 3.05 2.0 1.31 2.31 0.51 1.03 2.17 1.1 1.76 3.71 0.34 4.19 1.02 3.2 0.5 2.73 1.84 3.79 1.13 2.08 2.53 1.14 0.5 3.29 1.41 3.74 2.05 0.43 4.02 3.36 0.55 3.88 0.3 0.83 0.78 4.18 3.02 1.16 1.14 4.46 3.08]

[95 88 12 76 14 58 23 38 32 19 93 67 57 55 67 49 41 8 58 96 3 73 91 73 48 45 88 92 56 61 48 82 41 48 4 36 33 100 70 47 13 99 67 9 36 22 78 70 20 47 56 8 10 18 47 9 13 96]
